
Gurobi 8.1.1 (win64) logging started 11/24/19 13:25:04

Changed value of parameter LogFile to logs/drand/ip/drand-10-075-1.log
   Prev: gurobi.log  Default: 
Changed value of parameter LogToConsole to 0
   Prev: 1  Min: 0  Max: 1  Default: 1
Changed value of parameter TimeLimit to 3600.0
   Prev: 1e+100  Min: 0.0  Max: 1e+100  Default: 1e+100
Optimize a model with 1230 rows, 572 columns and 4585 nonzeros
Variable types: 0 continuous, 572 integer (561 binary)
Coefficient statistics:
  Matrix range     [1e+00, 3e+02]
  Objective range  [1e+00, 1e+00]
  Bounds range     [1e+00, 1e+00]
  RHS range        [1e+00, 4e+02]
Presolve removed 3 rows and 3 columns
Presolve time: 0.02s
Presolved: 1227 rows, 569 columns, 4576 nonzeros
Variable types: 0 continuous, 569 integer (558 binary)

Root relaxation: objective 4.076923e+00, 434 iterations, 0.01 seconds

    Nodes    |    Current Node    |     Objective Bounds      |     Work
 Expl Unexpl |  Obj  Depth IntInf | Incumbent    BestBd   Gap | It/Node Time

     0     0    4.07692    0   73          -    4.07692      -     -    0s
H    0     0                      11.0000000    4.07692  62.9%     -    0s
     0     0    5.00000    0   27   11.00000    5.00000  54.5%     -    0s
     0     0    5.00000    0   24   11.00000    5.00000  54.5%     -    0s
     0     0    5.00000    0   24   11.00000    5.00000  54.5%     -    0s
     0     0    5.00000    0   17   11.00000    5.00000  54.5%     -    0s
     0     0    5.00000    0   17   11.00000    5.00000  54.5%     -    0s
     0     0    5.00000    0   16   11.00000    5.00000  54.5%     -    0s
H    0     0                      10.0000000    5.00000  50.0%     -    0s
     0     0    5.00000    0   16   10.00000    5.00000  50.0%     -    0s
     0     0    5.00000    0   13   10.00000    5.00000  50.0%     -    0s
     0     0    5.00000    0   13   10.00000    5.00000  50.0%     -    0s
     0     0    5.00000    0   30   10.00000    5.00000  50.0%     -    0s
H    0     0                       9.0000000    5.00000  44.4%     -    0s
     0     0    5.00000    0   31    9.00000    5.00000  44.4%     -    0s
     0     0    5.00000    0   13    9.00000    5.00000  44.4%     -    0s
     0     0    5.00000    0   11    9.00000    5.00000  44.4%     -    0s
     0     0    5.00000    0   28    9.00000    5.00000  44.4%     -    0s
     0     0    5.00000    0   21    9.00000    5.00000  44.4%     -    0s
     0     0    5.00000    0   21    9.00000    5.00000  44.4%     -    0s
     0     0    5.00000    0   10    9.00000    5.00000  44.4%     -    0s
     0     0    5.00000    0   21    9.00000    5.00000  44.4%     -    0s
     0     0    5.00000    0   24    9.00000    5.00000  44.4%     -    0s
     0     0    5.00000    0   10    9.00000    5.00000  44.4%     -    0s
     0     0    5.00000    0   15    9.00000    5.00000  44.4%     -    0s
     0     0    5.00000    0   35    9.00000    5.00000  44.4%     -    0s
     0     0    5.00000    0   50    9.00000    5.00000  44.4%     -    0s
     0     0    5.00000    0   49    9.00000    5.00000  44.4%     -    0s
     0     0    5.00000    0   15    9.00000    5.00000  44.4%     -    0s
     0     0    5.00000    0   15    9.00000    5.00000  44.4%     -    0s
     0     0    5.00000    0   15    9.00000    5.00000  44.4%     -    0s
     0     0    5.00000    0   15    9.00000    5.00000  44.4%     -    0s
     0     0    5.00000    0   15    9.00000    5.00000  44.4%     -    0s
     0     0    5.00000    0   15    9.00000    5.00000  44.4%     -    0s
     0     2    5.00000    0   10    9.00000    5.00000  44.4%     -    0s
H  790   480                       8.0000000    5.00000  37.5%  11.1    1s
 20967 11960    7.00000   72   16    8.00000    5.00000  37.5%   7.1    6s
H57675 11585                       7.0000000    5.00000  28.6%   6.7    9s
 59839 12662    6.00000   45   16    7.00000    5.00000  28.6%   6.8   10s
 62918 13841 infeasible   60         7.00000    5.00000  28.6%   6.9   15s
 108368 19769 infeasible  105         7.00000    6.00000  14.3%   6.6   20s
 193306  7802 infeasible  110         7.00000    6.00000  14.3%   5.8   25s
 277227  6359 infeasible  128         7.00000    6.00000  14.3%   5.4   30s
 358325  5506    6.00000   89   23    7.00000    6.00000  14.3%   5.2   35s
 439752  4073    6.00000   97   10    7.00000    6.00000  14.3%   5.1   40s
 521751  3004 infeasible   93         7.00000    6.00000  14.3%   5.0   45s
 603344  2157    6.00000   87   10    7.00000    6.00000  14.3%   5.0   50s
 682207  1220 infeasible  131         7.00000    6.00000  14.3%   4.9   55s
 757592   438 infeasible  125         7.00000    6.00000  14.3%   4.9   60s

Cutting planes:
  Flow cover: 2
  Inf proof: 2
  Zero half: 1

Explored 774844 nodes (3809320 simplex iterations) in 61.04 seconds
Thread count was 4 (of 4 available processors)

Solution count 5: 7 8 9 ... 11

Optimal solution found (tolerance 1.00e-04)
Best objective 7.000000000000e+00, best bound 7.000000000000e+00, gap 0.0000%
